(set-logic QF_SLIA)
(set-option :produce-models true)
(declare-fun x () String)
(assert (str.in_re x (re.++ (re.+ (re.range "7" "8")) (str.to_re "34") (re.* (re.union (re.range "1" "8") (re.range "6" "8"))))))
(assert (= (mod (mod (str.to_int x) 136) 27) 18))
(assert (< (str.len x) 100))
(check-sat)
(get-model)